tsp_instances/TSP50/instance92.tsp
NODE_COORD_SECTION
0 128 55
1 155 83
2 200 15
3 102 53
4 77 68
5 51 109
6 183 3
7 34 67
8 140 170
9 162 124
10 11 2
11 108 134
12 117 184
13 17 123
14 159 58
15 3 7
16 114 168
17 196 68
18 164 115
19 199 181
20 137 30
21 55 29
22 74 26
23 152 193
24 23 105
25 138 191
26 20 40
27 51 101
28 112 69
29 40 156
30 68 138
31 39 169
32 151 170
33 151 126
34 147 89
35 87 21
36 113 57
37 92 9
38 11 182
39 9 112
40 199 53
41 70 154
42 184 73
43 54 183
44 130 127
45 96 106
46 44 93
47 71 119
48 40 95
49 113 117
