tsp_instances/TSP50/instance92.opt.tour
TOUR_SECTION
1
21
7
3
41
18
43
15
2
35
19
10
34
45
9
33
20
24
26
13
17
12
50
46
48
31
42
44
39
32
30
14
40
25
6
28
47
49
8
27
16
11
22
23
38
36
5
4
37
29
-1